c User generated cnf file
p cnf 14 19
12 9 -8 0 
1 -9 6 0 
6 -8 2 0 
2 7 -1 0 
8 -9 9 0 
2 -10 11 0 
7 -7 7 0 
2 -10 14 0 
8 7 -14 0 
4 -12 2 0 
12 6 -7 0 
12 -5 12 0 
11 -12 5 0 
10 7 -2 0 
13 11 -12 0 
10 4 -9 0 
7 8 -6 0 
8 7 -5 0 
4 1 -7 0 
